200
294
155
96
380
135
440
204
459
160
90
282
72
250
430
32
98
39
84
315
140
208
205
310
144
111
208
352
264
50
360
174
460
180
75
294
279
147
152
270
270
204
255
164
150
235
333
78
86
128
450
39
56
92
210
312
336
217
480
185
54
264
66
204
400
261
282
216
100
129
128
392
228
28
405
136
520
328
120
96
296
156
132
198
150
156
87
230
140
125
126
62
196
380
162
352
340
357
240
